db/data/320792898234092630144677153988423452.z3.out
-------------------
2500.079239630
